
Welcome to IBM(R) ILOG(R) CPLEX(R) Interactive Optimizer 22.1.1.0
  with Simplex, Mixed Integer & Barrier Optimizers
5725-A06 5725-A29 5724-Y48 5724-Y49 5724-Y54 5724-Y55 5655-Y21
Copyright IBM Corp. 1988, 2022.  All Rights Reserved.

Type 'help' for a list of available commands.
Type 'help' followed by a command name for more
information on commands.

CPLEX> Selected objective sense:  MINIMIZE
Selected objective  name:  00000000
Selected RHS        name:  RHS1
Selected bound      name:  BOUND
Problem 'ee.mps' read.
Read time = 0.03 sec. (3.17 ticks)
CPLEX> New value for time limit in seconds: 7200
CPLEX> New value for parallel optimization mode: -1
CPLEX> New value for default parallel thread count: 40
CPLEX> New value for mixed integer optimality gap tolerance: 1e-13
CPLEX> Version identifier: 22.1.1.0 | 2022-11-28 | 9160aff4d
CPXPARAM_Threads                                 40
CPXPARAM_Parallel                                -1
CPXPARAM_TimeLimit                               7200
CPXPARAM_MIP_Tolerances_MIPGap                   1e-13
Found incumbent of value 0.000000 after 0.00 sec. (0.31 ticks)
Tried aggregator 2 times.
MIP Presolve eliminated 180 rows and 2745 columns.
MIP Presolve modified 6090 coefficients.
Aggregator did 713 substitutions.
Reduced MIP has 3635 rows, 7835 columns, and 28930 nonzeros.
Reduced MIP has 7835 binaries, 0 generals, 0 SOSs, and 0 indicators.
Presolve time = 0.07 sec. (68.90 ticks)
Probing time = 0.03 sec. (5.32 ticks)
Tried aggregator 1 time.
Detecting symmetries...
Reduced MIP has 3635 rows, 7835 columns, and 28930 nonzeros.
Reduced MIP has 7835 binaries, 0 generals, 0 SOSs, and 0 indicators.
Presolve time = 0.02 sec. (21.99 ticks)
Probing time = 0.02 sec. (5.12 ticks)
Clique table members: 18781.
MIP emphasis: balance optimality and feasibility.
MIP search method: dynamic search.
Parallel mode: opportunistic, using up to 40 threads.
Root relaxation solution time = 0.09 sec. (76.98 ticks)

        Nodes                                         Cuts/
   Node  Left     Objective  IInf  Best Integer    Best Bound    ItCnt     Gap

*     0+    0                            0.0000  -1.54000e+13              --- 
*     0+    0                      -6.00000e+12  -1.54000e+13           156.67%
      0     0  -1.53900e+13    19  -6.00000e+12  -1.53900e+13     2013  156.50%
*     0+    0                      -1.53900e+13  -1.53900e+13             0.00%
      0     0  -1.53900e+13    75  -1.53900e+13      Cuts: 34     2288    0.00%
*     0+    0                      -1.53900e+13  -1.53900e+13             0.00%
      0     0  -1.53900e+13   116  -1.53900e+13      Cuts: 73     2787    0.00%
*     0+    0                      -1.53900e+13  -1.53900e+13             0.00%
*     0+    0                      -1.53900e+13  -1.53900e+13             0.00%

Repeating presolve.
Tried aggregator 2 times.
MIP Presolve eliminated 1481 rows and 3902 columns.
MIP Presolve modified 52 coefficients.
Aggregator did 648 substitutions.
Reduced MIP has 1506 rows, 3174 columns, and 11626 nonzeros.
Reduced MIP has 3174 binaries, 0 generals, 0 SOSs, and 0 indicators.
Presolve time = 0.05 sec. (57.74 ticks)
Probing fixed 28 vars, tightened 0 bounds.
Probing time = 0.03 sec. (10.68 ticks)
Tried aggregator 1 time.
MIP Presolve eliminated 65 rows and 78 columns.
Reduced MIP has 1441 rows, 3085 columns, and 11345 nonzeros.
Reduced MIP has 3085 binaries, 0 generals, 0 SOSs, and 0 indicators.
Presolve time = 0.01 sec. (9.99 ticks)
Probing time = 0.02 sec. (3.45 ticks)
Tried aggregator 1 time.
Detecting symmetries...
Reduced MIP has 1441 rows, 3085 columns, and 11345 nonzeros.
Reduced MIP has 3085 binaries, 0 generals, 0 SOSs, and 0 indicators.
Presolve time = 0.01 sec. (8.51 ticks)
Represolve time = 0.16 sec. (108.59 ticks)
Probing time = 0.02 sec. (3.46 ticks)
Clique table members: 7265.
MIP emphasis: balance optimality and feasibility.
MIP search method: dynamic search.
Parallel mode: opportunistic, using up to 40 threads.
Root relaxation solution time = 0.04 sec. (32.01 ticks)

        Nodes                                         Cuts/
   Node  Left     Objective  IInf  Best Integer    Best Bound    ItCnt     Gap

*     0+    0                      -1.53900e+13  -1.53900e+13             0.00%
      0     0  -1.53900e+13    92  -1.53900e+13  -1.53900e+13     3805    0.00%
      0     0  -1.53900e+13   130  -1.53900e+13      Cuts: 70     3956    0.00%
      0     0  -1.53900e+13   114  -1.53900e+13      Cuts: 53     4119    0.00%
      0     0  -1.53900e+13   181  -1.53900e+13      Cuts: 44     4282    0.00%
      0     2  -1.53900e+13   181  -1.53900e+13  -1.53900e+13     4282    0.00%
Elapsed time = 1.56 sec. (974.34 ticks, tree = 0.02 MB, solutions = 6)
   1409   130  -1.53900e+13   148  -1.53900e+13  -1.53900e+13    31374    0.00%
*  2051   309      integral     0  -1.53900e+13  -1.53900e+13    79473    0.00%
   2413   529        cutoff        -1.53900e+13  -1.53900e+13   140438    0.00%
   4103   530  -1.53900e+13   223  -1.53900e+13  -1.53900e+13   139939    0.00%
   5798   927  -1.53900e+13   115  -1.53900e+13  -1.53900e+13   429127    0.00%
   7638   933  -1.53900e+13   237  -1.53900e+13  -1.53900e+13   442759    0.00%
   9526   913  -1.53900e+13   112  -1.53900e+13  -1.53900e+13   450923    0.00%
  10737   803  -1.53900e+13   155  -1.53900e+13  -1.53900e+13   358957    0.00%
  11626   831        cutoff        -1.53900e+13  -1.53900e+13   486323    0.00%
  12057   712        cutoff        -1.53900e+13  -1.53900e+13   514581    0.00%

Performing restart 1

Repeating presolve.
Tried aggregator 2 times.
MIP Presolve eliminated 86 rows and 131 columns.
MIP Presolve modified 938 coefficients.
Aggregator did 64 substitutions.
Reduced MIP has 1291 rows, 2883 columns, and 10287 nonzeros.
Reduced MIP has 2883 binaries, 0 generals, 0 SOSs, and 0 indicators.
Presolve time = 0.02 sec. (13.42 ticks)
Tried aggregator 1 time.
Reduced MIP has 1291 rows, 2883 columns, and 10287 nonzeros.
Reduced MIP has 2883 binaries, 0 generals, 0 SOSs, and 0 indicators.
Presolve time = 0.01 sec. (10.97 ticks)
Represolve time = 0.08 sec. (46.73 ticks)
  12084     0  -1.53900e+13   201  -1.53900e+13      Cuts: 45   573924    0.00%
  12084     0  -1.53900e+13   220  -1.53900e+13      Cuts: 33   574125    0.00%
  12084     0  -1.53900e+13   219  -1.53900e+13      Cuts: 33   574264    0.00%
  12084     0  -1.53900e+13   205  -1.53900e+13      Cuts: 16   574304    0.00%
  12084     0  -1.53900e+13   238  -1.53900e+13      Cuts: 17   574388    0.00%
  12084     0  -1.53900e+13   271  -1.53900e+13      Cuts: 22   574461    0.00%
  12084     0  -1.53900e+13   254  -1.53900e+13      Cuts: 15   574520    0.00%
  12084     0  -1.53900e+13   242  -1.53900e+13      Cuts: 17   574591    0.00%
  12084     0  -1.53900e+13   261  -1.53900e+13      Cuts: 11   574620    0.00%
  12084     0  -1.53900e+13   263  -1.53900e+13      Cuts: 14   574677    0.00%
  12084     7        cutoff        -1.53900e+13  -1.53900e+13   579120    0.00%
Elapsed time = 6.79 sec. (4252.82 ticks, tree = 0.02 MB, solutions = 11)

GUB cover cuts applied:  1
Clique cuts applied:  23
Cover cuts applied:  170
Flow cuts applied:  2
Mixed integer rounding cuts applied:  3
Zero-half cuts applied:  57
Lift and project cuts applied:  5
Gomory fractional cuts applied:  9

Root node processing (before b&c):
  Real time             =    1.23 sec. (974.09 ticks)
Parallel b&c, 40 threads:
  Real time             =    5.71 sec. (4178.32 ticks)
  Sync time (average)   =    1.43 sec.
  Wait time (average)   =    0.07 sec.
                          ------------
Total (root+branch&cut) =    6.94 sec. (5152.40 ticks)

Solution pool: 11 solutions saved.

MIP - Integer optimal solution:  Objective = -1.5389999989e+13
Solution time =    7.02 sec.  Iterations = 582798  Nodes = 12286
Deterministic time = 5152.44 ticks  (734.07 ticks/sec)

CPLEX> Solution 'p12' written to file 'ee.sol'.
CPLEX> 